(set-logic QF_SLIA)
(declare-fun var0 () String)
(assert (not (str.in_re var0 (re.++ ((_ re.loop 15 249) (re.++ (re.union (str.to_re "I>l") (re.union (str.to_re ",") (re.union (str.to_re ")") (str.to_re "$")))) (re.++ (re.union (str.to_re "ag") (re.union (str.to_re "~Hf") (re.union (str.to_re "fM/") (str.to_re ";P\u0022")))) (re.++ (re.union (str.to_re "wfy") (re.union (str.to_re "yta") (re.union (str.to_re "/") (str.to_re "S")))) (re.union (str.to_re "!") (re.union (str.to_re "w") (re.union (str.to_re ">") (str.to_re "O\u0022/")))))))) (re.++ ((_ re.loop 7 747) (re.++ (re.union (str.to_re "uC") (re.union (str.to_re "Y") (re.union (str.to_re "Z~") (str.to_re "=")))) (re.++ (re.union (str.to_re "0+") (re.union (str.to_re "U") (re.union (str.to_re "C5") (str.to_re "sHL")))) (re.++ (re.union (str.to_re "^<") (re.union (str.to_re "{,") (re.union (str.to_re "f") (str.to_re "d:")))) (re.union (str.to_re "z") (re.union (str.to_re "'") (re.union (str.to_re "Ba") (str.to_re "*")))))))) (re.++ ((_ re.loop 15 40) (re.++ (re.union (str.to_re "u") (re.union (str.to_re "Q2") (re.union (str.to_re "#M-") (str.to_re ";`I")))) (re.++ (re.union (str.to_re "t9") (re.union (str.to_re "}qu") (re.union (str.to_re "5") (str.to_re "((")))) (re.++ (re.union (str.to_re ")") (re.union (str.to_re "6[S") (re.union (str.to_re "-") (str.to_re "#")))) (re.union (str.to_re "!") (re.union (str.to_re "C5<") (re.union (str.to_re "na") (str.to_re "--\\")))))))) ((_ re.loop 3 522) (re.++ (re.union (str.to_re "J?") (re.union (str.to_re "A") (re.union (str.to_re "D`6") (str.to_re "_E")))) (re.++ (re.union (str.to_re "]h") (re.union (str.to_re "F4X") (re.union (str.to_re "31q") (str.to_re "&")))) (re.++ (re.union (str.to_re "tm-") (re.union (str.to_re "pF8") (re.union (str.to_re "mZ") (str.to_re "bc")))) (re.union (str.to_re "|") (re.union (str.to_re "SB") (re.union (str.to_re "8") (str.to_re "!0R"))))))))))))))
(assert (not (str.in_re var0 (re.++ ((_ re.loop 16 471) (re.++ (re.union (str.to_re "S9D") (re.union (str.to_re "?") (re.union (str.to_re "v") (str.to_re ")")))) (re.++ (re.union (str.to_re "GM+") (re.union (str.to_re "b") (re.union (str.to_re "/!") (str.to_re "=<X")))) (re.++ (re.union (str.to_re "h") (re.union (str.to_re "o{") (re.union (str.to_re "Er") (str.to_re "/Y")))) (re.union (str.to_re "?p") (re.union (str.to_re "m5^") (re.union (str.to_re "u{") (str.to_re "B[9")))))))) (re.++ ((_ re.loop 10 456) (re.++ (re.union (str.to_re "[t") (re.union (str.to_re "]y") (re.union (str.to_re ")e:") (str.to_re ":")))) (re.++ (re.union (str.to_re ":/") (re.union (str.to_re "G@k") (re.union (str.to_re "<tF") (str.to_re "N")))) (re.++ (re.union (str.to_re "*mf") (re.union (str.to_re "K") (re.union (str.to_re "[l") (str.to_re "n6")))) (re.union (str.to_re "60x") (re.union (str.to_re "~") (re.union (str.to_re "!}D") (str.to_re "3+")))))))) (re.++ ((_ re.loop 16 1000) (re.++ (re.union (str.to_re "w2w") (re.union (str.to_re "3&") (re.union (str.to_re "g+#") (str.to_re "M")))) (re.++ (re.union (str.to_re "WYN") (re.union (str.to_re ">,C") (re.union (str.to_re "9Z") (str.to_re "n")))) (re.++ (re.union (str.to_re "!(D") (re.union (str.to_re "twg") (re.union (str.to_re "}") (str.to_re "GS")))) (re.union (str.to_re "y") (re.union (str.to_re ",") (re.union (str.to_re "/Y") (str.to_re "`J")))))))) ((_ re.loop 3 30) (re.++ (re.union (str.to_re "k") (re.union (str.to_re "_w;") (re.union (str.to_re "$em") (str.to_re "w4")))) (re.++ (re.union (str.to_re "A#F") (re.union (str.to_re "qx") (re.union (str.to_re "K") (str.to_re "'")))) (re.++ (re.union (str.to_re "X8") (re.union (str.to_re "?eE") (re.union (str.to_re "Hq[") (str.to_re "7R|")))) (re.union (str.to_re "we") (re.union (str.to_re "OUq") (re.union (str.to_re "<..") (str.to_re "u="))))))))))))))
(assert (not (str.in_re var0 (re.++ (re.* re.allchar) (re.++ (re.union (str.to_re "<") (re.union (str.to_re ">") (re.union (str.to_re "'") (re.union (str.to_re "\u0022") (str.to_re "&"))))) (re.* re.allchar))))))
(assert (<= 50 (str.len var0)))
(check-sat)
(get-model)
